# temperarory input for lammps
 
units     metal
atom_style full
boundary p p p
kspace_style pppm 1.0e-4
pair_style hybrid/overlay  12lj/cut/coul/long 8.0 8.0 bv 2.0 8.0 bvv 2.0 8.0
angle_style harmonic
read_data mixdata.BTO
#read_restart BTO.restart



pair_coeff 1 1 12lj/cut/coul/long 2.0 2.4480500
pair_coeff 1 2 12lj/cut/coul/long 2.0 0.1024720
pair_coeff 1 3 12lj/cut/coul/long 2.0 2.7742270
pair_coeff 1 4 12lj/cut/coul/long 2.0 2.3259200
pair_coeff 1 5 12lj/cut/coul/long 2.0 1.6869110
pair_coeff 1 6 12lj/cut/coul/long 2.0 1.9879200
pair_coeff 2 2 12lj/cut/coul/long 2.0 2.4116230
pair_coeff 2 3 12lj/cut/coul/long 2.0 2.6499670
pair_coeff 2 4 12lj/cut/coul/long 2.0 2.2839200
pair_coeff 2 5 12lj/cut/coul/long 2.0 0.4357730
pair_coeff 2 6 12lj/cut/coul/long 2.0 1.9919240
pair_coeff 3 3 12lj/cut/coul/long 2.0 1.8086700
pair_coeff 3 4 12lj/cut/coul/long 2.0 2.1472540
pair_coeff 3 5 12lj/cut/coul/long 2.0 2.2382740
pair_coeff 3 6 12lj/cut/coul/long 2.0 1.8111540
pair_coeff 4 4 12lj/cut/coul/long 2.0 2.7382500
pair_coeff 4 5 12lj/cut/coul/long 2.0 2.3822010
pair_coeff 4 6 12lj/cut/coul/long 2.0 1.3774100
pair_coeff 5 5 12lj/cut/coul/long 2.0 1.3742900
pair_coeff 5 6 12lj/cut/coul/long 2.0 1.5070280
pair_coeff 6 6 12lj/cut/coul/long 2.0 1.9926900


#                   r0   Nij    S     v0 rcut
pair_coeff 1 1 bv 0.0000000 5.0000000 0.5973900 2.0000000 8.0000000
pair_coeff 1 2 bv 0.0000000 5.0000000 0.0000000 0.0000000 8.0000000
pair_coeff 1 3 bv 0.0000000 5.0000000 0.0000000 0.0000000 8.0000000
pair_coeff 1 4 bv 0.0000000 5.0000000 0.0000000 0.0000000 8.0000000
pair_coeff 1 5 bv 0.0000000 5.0000000 0.0000000 0.0000000 8.0000000
pair_coeff 1 6 bv 2.2900000 8.9400000 0.0000000 0.0000000 8.0000000
pair_coeff 2 2 bv 0.0000000 5.0000000 7.0050680 2.0000000 8.0000000
pair_coeff 2 3 bv 0.0000000 5.0000000 0.0000000 0.0000000 8.0000000
pair_coeff 2 4 bv 0.0000000 5.0000000 0.0000000 0.0000000 8.0000000
pair_coeff 2 5 bv 0.0000000 5.0000000 0.0000000 0.0000000 8.0000000
pair_coeff 2 6 bv 1.4508670 4.7801200 0.0000000 0.0000000 8.0000000
pair_coeff 3 3 bv 0.0000000 5.0000000 0.0001380 3.0000000 8.0000000
pair_coeff 3 4 bv 0.0000000 5.0000000 0.0000000 0.0000000 8.0000000
pair_coeff 3 5 bv 0.0000000 5.0000000 0.0000000 0.0000000 8.0000000
pair_coeff 3 6 bv 1.8082980 5.9385080 0.0000000 0.0000000 8.0000000
pair_coeff 4 4 bv 0.0000000 5.0000000 0.1653300 4.0000000 8.0000000
pair_coeff 4 5 bv 0.0000000 5.0000000 0.0000000 0.0000000 8.0000000
pair_coeff 4 6 bv 1.7980000 5.2000000 0.0000000 0.0000000 8.0000000
pair_coeff 5 5 bv 0.0000000 5.0000000 7.8334850 2.0000000 8.0000000
pair_coeff 5 6 bv 1.0531930 2.7753500 0.0000000 0.0000000 8.0000000
pair_coeff 6 6 bv 0.0000000 5.0000000 0.9306300 2.0000000 8.0000000
#                    r0  Nij     S     Bvv0  rcut
pair_coeff 1 1 bvv 0.0000000 5.0000000 0.0842900 0.1156100 8.0000000
pair_coeff 1 2 bvv 0.0000000 5.0000000 0.0000000 0.0000000 8.0000000
pair_coeff 1 3 bvv 0.0000000 5.0000000 0.0000000 0.0000000 8.0000000
pair_coeff 1 4 bvv 0.0000000 5.0000000 0.0000000 0.0000000 8.0000000
pair_coeff 1 5 bvv 0.0000000 5.0000000 0.0000000 0.0000000 8.0000000
pair_coeff 1 6 bvv 2.2900000 8.9400000 0.0000000 0.0000000 8.0000000
pair_coeff 2 2 bvv 0.0000000 5.0000000 8.7304470 1.4059990 8.0000000
pair_coeff 2 3 bvv 0.0000000 5.0000000 0.0000000 0.0000000 8.0000000
pair_coeff 2 4 bvv 0.0000000 5.0000000 0.0000000 0.0000000 8.0000000
pair_coeff 2 5 bvv 0.0000000 5.0000000 0.0000000 0.0000000 8.0000000
pair_coeff 2 6 bvv 1.4508670 4.7801200 0.0000000 0.0000000 8.0000000
pair_coeff 3 3 bvv 0.0000000 5.0000000 0.0888410 5.2956540 8.0000000
pair_coeff 3 4 bvv 0.0000000 5.0000000 0.0000000 0.0000000 8.0000000
pair_coeff 3 5 bvv 0.0000000 5.0000000 0.0000000 0.0000000 8.0000000
pair_coeff 3 6 bvv 1.8082980 5.9385080 0.0000000 0.0000000 8.0000000
pair_coeff 4 4 bvv 0.0000000 5.0000000 0.8248400 0.3943700 8.0000000
pair_coeff 4 5 bvv 0.0000000 5.0000000 0.0000000 0.0000000 8.0000000
pair_coeff 4 6 bvv 1.7980000 5.2000000 0.0000000 0.0000000 8.0000000
pair_coeff 5 5 bvv 0.0000000 5.0000000 9.1072980 0.8546780 8.0000000
pair_coeff 5 6 bvv 1.0531930 2.7753500 0.0000000 0.0000000 8.0000000
pair_coeff 6 6 bvv 0.0000000 5.0000000 0.2800600 0.3165100 8.0000000


neighbor        2.0 bin
neigh_modify    every 1
# time unit ps
timestep         0.001

#group Pb id 1:512
#group Ti id 513:1024
#group O1 id 1025:1536
#group O2 id 1537:2048
#group O3 id 2049:2560
thermo          100
thermo_style custom step temp eangle etotal press vol lx ly lz
thermo_modify line one format float %12.5f


fix 1 all nvt temp 100.0 100.0 1.0
run 50000
unfix 1

fix 2 all npt temp 100.0 100.0 1.0 aniso 1.01325 1.01325 5.0
run 50000
unfix 2

fix 3 all nvt temp 200.0 200.0 1.0
run 50000
unfix 3

fix 4 all npt temp 200.0 200.0 1.0 aniso 1.01325 1.01325 5.0
dump 4 all custom 200 dump.xyz x y z
dump_modify 4 sort id
run 250000
unfix 4

